(set-logic UF)
(declare-sort Set 0)
(declare-sort Elem 0)
(declare-fun member (Elem Set) Bool)
(declare-fun subset (Set Set) Bool)
(declare-fun seteq (Set Set) Bool)
(declare-fun union (Set Set) Set)
(declare-fun intersection (Set Set) Set)
(declare-fun difference (Set Set) Set)
(declare-fun a () Set)
(declare-fun b () Set)
(declare-fun c () Set)
(assert (not (= (=> (forall ((?x Elem) (?s1 Set) (?s2 Set)) (= (and (member ?x ?s1) (not (member ?x ?s2))) (member ?x (difference ?s1 ?s2)))) (= (and (member (choice ((?x Elem)) (not (or (not (member ?x (difference c (intersection a b)))) (member ?x (union (difference c a) (difference c b)))))) c) (not (member (choice ((?x Elem)) (not (or (not (member ?x (difference c (intersection a b)))) (member ?x (union (difference c a) (difference c b)))))) a))) (member (choice ((?x Elem)) (not (or (not (member ?x (difference c (intersection a b)))) (member ?x (union (difference c a) (difference c b)))))) (difference c a)))) (=> (forall ((?x Elem) (?s1 Set) (?s2 Set)) (= (and (member ?x ?s1) (not (member ?x ?s2))) (member ?x (difference ?s1 ?s2)))) (= (member (choice ((?x Elem)) (not (or (not (member ?x (difference c (intersection a b)))) (member ?x (union (difference c a) (difference c b)))))) (difference c a)) (and (member (choice ((?x Elem)) (not (or (not (member ?x (difference c (intersection a b)))) (member ?x (union (difference c a) (difference c b)))))) c) (not (member (choice ((?x Elem)) (not (or (not (member ?x (difference c (intersection a b)))) (member ?x (union (difference c a) (difference c b)))))) a))))))))
(assert (= (forall ((?x Elem) (?s1 Set) (?s2 Set)) (= (and (member ?x ?s1) (not (member ?x ?s2))) (member ?x (difference ?s1 ?s2)))) (forall ((?x Elem) (?s1 Set) (?s2 Set)) (= (and (member ?x ?s1) (not (member ?x ?s2))) (member ?x (difference ?s1 ?s2))))))
(assert (= (= (and (member (choice ((?x Elem)) (not (or (not (member ?x (difference c (intersection a b)))) (member ?x (union (difference c a) (difference c b)))))) c) (not (member (choice ((?x Elem)) (not (or (not (member ?x (difference c (intersection a b)))) (member ?x (union (difference c a) (difference c b)))))) a))) (member (choice ((?x Elem)) (not (or (not (member ?x (difference c (intersection a b)))) (member ?x (union (difference c a) (difference c b)))))) (difference c a))) (= (member (choice ((?x Elem)) (not (or (not (member ?x (difference c (intersection a b)))) (member ?x (union (difference c a) (difference c b)))))) (difference c a)) (and (member (choice ((?x Elem)) (not (or (not (member ?x (difference c (intersection a b)))) (member ?x (union (difference c a) (difference c b)))))) c) (not (member (choice ((?x Elem)) (not (or (not (member ?x (difference c (intersection a b)))) (member ?x (union (difference c a) (difference c b)))))) a))))))
(check-sat)
(exit)
